
Welcome to IBM(R) ILOG(R) CPLEX(R) Interactive Optimizer 22.1.1.0
  with Simplex, Mixed Integer & Barrier Optimizers
5725-A06 5725-A29 5724-Y48 5724-Y49 5724-Y54 5724-Y55 5655-Y21
Copyright IBM Corp. 1988, 2022.  All Rights Reserved.

Type 'help' for a list of available commands.
Type 'help' followed by a command name for more
information on commands.

CPLEX> Selected objective sense:  MINIMIZE
Selected objective  name:  00000000
Selected RHS        name:  RHS1
Selected bound      name:  BOUND
Problem 'ee.mps' read.
Read time = 0.03 sec. (3.17 ticks)
CPLEX> New value for time limit in seconds: 7200
CPLEX> New value for parallel optimization mode: -1
CPLEX> New value for default parallel thread count: 40
CPLEX> New value for mixed integer optimality gap tolerance: 1e-13
CPLEX> Version identifier: 22.1.1.0 | 2022-11-28 | 9160aff4d
CPXPARAM_Threads                                 40
CPXPARAM_Parallel                                -1
CPXPARAM_TimeLimit                               7200
CPXPARAM_MIP_Tolerances_MIPGap                   1e-13
Found incumbent of value 0.000000 after 0.00 sec. (0.31 ticks)
Tried aggregator 2 times.
MIP Presolve eliminated 180 rows and 2745 columns.
MIP Presolve modified 6090 coefficients.
Aggregator did 713 substitutions.
Reduced MIP has 3636 rows, 7835 columns, and 28932 nonzeros.
Reduced MIP has 7835 binaries, 0 generals, 0 SOSs, and 0 indicators.
Presolve time = 0.07 sec. (68.89 ticks)
Probing time = 0.03 sec. (6.02 ticks)
Tried aggregator 1 time.
Detecting symmetries...
Reduced MIP has 3636 rows, 7835 columns, and 28932 nonzeros.
Reduced MIP has 7835 binaries, 0 generals, 0 SOSs, and 0 indicators.
Presolve time = 0.02 sec. (21.99 ticks)
Probing time = 0.02 sec. (5.82 ticks)
Clique table members: 18782.
MIP emphasis: balance optimality and feasibility.
MIP search method: dynamic search.
Parallel mode: opportunistic, using up to 40 threads.
Root relaxation solution time = 0.06 sec. (53.86 ticks)

        Nodes                                         Cuts/
   Node  Left     Objective  IInf  Best Integer    Best Bound    ItCnt     Gap

*     0+    0                            0.0000  -1.54000e+13              --- 
*     0+    0                      -4.79000e+12  -1.54000e+13           221.50%
*     0+    0                      -6.00000e+12  -1.54000e+13           156.67%
      0     0  -1.53900e+13   100  -6.00000e+12  -1.53900e+13     1453  156.50%
*     0+    0                      -1.53900e+13  -1.53900e+13             0.00%
*     0+    0                      -1.53900e+13  -1.53900e+13             0.00%
      0     0  -1.53900e+13   133  -1.53900e+13     Cuts: 101     2217    0.00%
*     0+    0                      -1.53900e+13  -1.53900e+13             0.00%
      0     0  -1.53900e+13   123  -1.53900e+13      Cuts: 61     3212    0.00%
*     0+    0                      -1.53900e+13  -1.53900e+13             0.00%
      0     0  -1.53900e+13   149  -1.53900e+13      Cuts: 63     3445    0.00%
*     0+    0                      -1.53900e+13  -1.53900e+13             0.00%
*     0+    0                      -1.53900e+13  -1.53900e+13             0.00%
      0    36        cutoff        -1.53900e+13  -1.53900e+13     9025    0.00%
Elapsed time = 2.27 sec. (1236.52 ticks, tree = 0.02 MB, solutions = 9)
    485    76  -1.53900e+13    93  -1.53900e+13  -1.53900e+13    16618    0.00%
    933   236  -1.53900e+13   102  -1.53900e+13  -1.53900e+13    56481    0.00%
   1476   366    infeasible        -1.53900e+13  -1.53900e+13    81527    0.00%
   2006   544  -1.53900e+13   110  -1.53900e+13  -1.53900e+13   114173    0.00%
   2396   732  -1.53900e+13   130  -1.53900e+13  -1.53900e+13   177709    0.00%
   2738   965        cutoff        -1.53900e+13  -1.53900e+13   240482    0.00%
   2986  1012    infeasible        -1.53900e+13  -1.53900e+13   258149    0.00%
   3208  1273  -1.53900e+13   149  -1.53900e+13  -1.53900e+13   332180    0.00%
   3543  1361  -1.53900e+13   147  -1.53900e+13  -1.53900e+13   374378    0.00%
   4836  1683  -1.53900e+13   182  -1.53900e+13  -1.53900e+13   501904    0.00%
Elapsed time = 8.00 sec. (4345.85 ticks, tree = 11.87 MB, solutions = 9)
   6013  2145  -1.53900e+13    82  -1.53900e+13  -1.53900e+13   659509    0.00%
   6801  2492  -1.53900e+13   173  -1.53900e+13  -1.53900e+13   815222    0.00%
   7571  3036    infeasible        -1.53900e+13  -1.53900e+13  1062090    0.00%
   8091  3202  -1.53900e+13   227  -1.53900e+13  -1.53900e+13  1141778    0.00%
   8556  3686        cutoff        -1.53900e+13  -1.53900e+13  1380595    0.00%
   8998  3800    infeasible        -1.53900e+13  -1.53900e+13  1457939    0.00%
   9359  3947  -1.53900e+13   289  -1.53900e+13  -1.53900e+13  1585961    0.00%
   9595  4018  -1.53900e+13   359  -1.53900e+13  -1.53900e+13  1672295    0.00%

Performing restart 1

Repeating presolve.
Tried aggregator 2 times.
MIP Presolve eliminated 28 rows and 24 columns.
MIP Presolve modified 1865 coefficients.
Aggregator did 8 substitutions.
Reduced MIP has 3524 rows, 7803 columns, and 28232 nonzeros.
Reduced MIP has 7803 binaries, 0 generals, 0 SOSs, and 0 indicators.
Presolve time = 0.04 sec. (28.56 ticks)
Tried aggregator 2 times.
MIP Presolve eliminated 22 rows and 75 columns.
MIP Presolve modified 28 coefficients.
Aggregator did 31 substitutions.
Reduced MIP has 3471 rows, 7685 columns, and 27816 nonzeros.
Reduced MIP has 7685 binaries, 0 generals, 0 SOSs, and 0 indicators.
Presolve time = 0.05 sec. (47.39 ticks)
Tried aggregator 1 time.
Reduced MIP has 3471 rows, 7685 columns, and 27816 nonzeros.
Reduced MIP has 7685 binaries, 0 generals, 0 SOSs, and 0 indicators.
Presolve time = 0.02 sec. (21.75 ticks)
Represolve time = 0.36 sec. (221.41 ticks)
   9597     0  -1.53900e+13   268  -1.53900e+13      Cuts: 80  2100463    0.00%
   9597     0  -1.53900e+13   308  -1.53900e+13      Cuts: 52  2100672    0.00%
   9597     0  -1.53900e+13   305  -1.53900e+13      Cuts: 47  2101098    0.00%
   9597     0  -1.53900e+13   365  -1.53900e+13      Cuts: 71  2101445    0.00%
   9597     0  -1.53900e+13   409  -1.53900e+13      Cuts: 61  2101777    0.00%
   9597     0  -1.53900e+13   371  -1.53900e+13      Cuts: 69  2101984    0.00%
   9597     0  -1.53900e+13   402  -1.53900e+13      Cuts: 63  2102294    0.00%
   9597     0  -1.53900e+13   426  -1.53900e+13      Cuts: 49  2102562    0.00%
   9597     0  -1.53900e+13   480  -1.53900e+13      Cuts: 44  2102980    0.00%
   9597     0  -1.53900e+13   461  -1.53900e+13      Cuts: 34  2103199    0.00%
   9597     0  -1.53900e+13   499  -1.53900e+13      Cuts: 50  2103381    0.00%
   9597     0  -1.53900e+13   472  -1.53900e+13      Cuts: 22  2103454    0.00%
   9597     0  -1.53900e+13   470  -1.53900e+13      Cuts: 48  2103600    0.00%
   9597     0  -1.53900e+13   506  -1.53900e+13      Cuts: 35  2103756    0.00%
   9597    14        cutoff        -1.53900e+13  -1.53900e+13  2110576    0.00%
  10314    89  -1.53900e+13   162  -1.53900e+13  -1.53900e+13  2139259    0.00%
Elapsed time = 28.25 sec. (18839.57 ticks, tree = 0.66 MB, solutions = 9)
  12239   411        cutoff        -1.53900e+13  -1.53900e+13  2201908    0.00%
  14985   361  -1.53900e+13   161  -1.53900e+13  -1.53900e+13  2229654    0.00%
  17584   434        cutoff        -1.53900e+13  -1.53900e+13  2332883    0.00%
  19041   399  -1.53900e+13   131  -1.53900e+13  -1.53900e+13  2375204    0.00%

GUB cover cuts applied:  15
Clique cuts applied:  18
Cover cuts applied:  517
Flow cuts applied:  4
Mixed integer rounding cuts applied:  59
Zero-half cuts applied:  126
Lift and project cuts applied:  4
Gomory fractional cuts applied:  24

Root node processing (before b&c):
  Real time             =    1.44 sec. (1226.57 ticks)
Parallel b&c, 40 threads:
  Real time             =   30.77 sec. (21750.26 ticks)
  Sync time (average)   =    3.13 sec.
  Wait time (average)   =    0.12 sec.
                          ------------
Total (root+branch&cut) =   32.21 sec. (22976.82 ticks)

Solution pool: 19 solutions saved.

MIP - Integer optimal solution:  Objective = -1.5389999089e+13
Solution time =   32.38 sec.  Iterations = 2511492  Nodes = 19132
Deterministic time = 22976.86 ticks  (709.68 ticks/sec)

CPLEX> Solution 'p20' written to file 'ee.sol'.
CPLEX> 